(set-logic QF_FPBV)
(set-info :source |Random FP created by PyMPF|)
(set-info :category random)
(set-info :status unsat)
;; fp.from.sbv(BitVec 64)
(declare-const x (_ BitVec 64))
(assert (bvsge x #b0001100011101010011111100000001110001001110101010001111000110110))
;; x should be 1795385955123011126
(declare-const r Float16)
(assert (= r ((_ to_fp 5 11) RTP x)))
(assert (not (fp.geq r ((_ to_fp 5 11) #x7C00))))
(check-sat)
(exit)
